p cnf 412 698
-10 -68 -57 76 0
-10 -68 -57 -76 0
3 46 -20 77 0
3 46 -20 -77 0
-1 19 36 78 0
-1 19 36 -78 0
68 -35 7 79 0
68 -35 7 -79 0
66 -23 -48 80 0
66 -23 -48 -80 0
27 -48 -62 81 0
27 -48 -62 -81 0
5 -42 -27 82 0
5 -42 -27 -82 0
-11 52 73 83 0
-11 52 73 -83 0
1 30 50 84 0
1 30 50 -84 0
-8 -23 -36 85 0
-8 -23 -36 -85 0
50 -66 47 86 0
50 -66 47 -86 0
-18 4 53 87 0
-18 4 53 -87 0
23 38 -6 88 0
23 38 -6 -88 0
36 10 73 89 0
36 10 73 -89 0
-23 25 53 90 0
-23 25 53 -90 0
58 55 8 91 0
58 55 8 -91 0
41 34 -11 92 0
41 34 -11 -92 0
-48 -26 1 93 0
-48 -26 1 -93 0
22 6 20 94 0
22 6 20 -94 0
50 39 -62 95 0
50 39 -62 -95 0
-44 5 -45 96 0
-44 5 -45 -96 0
-59 75 20 97 0
-59 75 20 -97 0
33 -66 49 98 0
33 -66 49 -98 0
-43 66 -25 99 0
-43 66 -25 -99 0
25 59 4 100 0
25 59 4 -100 0
-2 55 -30 101 0
-2 55 -30 -101 0
-32 15 64 102 0
-32 15 64 -102 0
-75 -42 -72 103 0
-75 -42 -72 -103 0
67 43 -30 104 0
67 43 -30 -104 0
-57 -54 23 105 0
-57 -54 23 -105 0
-11 66 -13 106 0
-11 66 -13 -106 0
29 -69 -59 107 0
29 -69 -59 -107 0
23 44 35 108 0
23 44 35 -108 0
59 9 1 109 0
59 9 1 -109 0
53 -7 -9 110 0
53 -7 -9 -110 0
-34 -3 64 111 0
-34 -3 64 -111 0
-16 72 -18 112 0
-16 72 -18 -112 0
67 -36 -31 113 0
67 -36 -31 -113 0
-60 -38 56 114 0
-60 -38 56 -114 0
16 29 13 115 0
16 29 13 -115 0
23 63 -8 116 0
23 63 -8 -116 0
-35 -50 -46 117 0
-35 -50 -46 -117 0
-39 -41 -19 118 0
-39 -41 -19 -118 0
41 52 35 119 0
41 52 35 -119 0
-28 53 -40 120 0
-28 53 -40 -120 0
-45 24 57 121 0
-45 24 57 -121 0
-27 -69 -66 122 0
-27 -69 -66 -122 0
-56 9 -5 123 0
-56 9 -5 -123 0
72 -44 48 124 0
72 -44 48 -124 0
43 -18 -62 125 0
43 -18 -62 -125 0
-1 28 -13 126 0
-1 28 -13 -126 0
-73 32 40 127 0
-73 32 40 -127 0
28 10 19 128 0
28 10 19 -128 0
29 6 -64 129 0
29 6 -64 -129 0
-12 5 -71 130 0
-12 5 -71 -130 0
-62 -11 6 131 0
-62 -11 6 -131 0
45 -65 -42 132 0
45 -65 -42 -132 0
20 6 4 133 0
20 6 4 -133 0
-58 -67 -18 134 0
-58 -67 -18 -134 0
25 5 -59 135 0
25 5 -59 -135 0
73 -64 -5 136 0
73 -64 -5 -136 0
-13 -32 -62 137 0
-13 -32 -62 -137 0
-49 60 45 138 0
-49 60 45 -138 0
64 -5 -74 139 0
64 -5 -74 -139 0
-60 75 -71 140 0
-60 75 -71 -140 0
-38 17 -61 141 0
-38 17 -61 -141 0
40 32 -4 142 0
40 32 -4 -142 0
66 59 -29 143 0
66 59 -29 -143 0
-43 24 56 144 0
-43 24 56 -144 0
33 -15 -32 145 0
33 -15 -32 -145 0
25 -21 68 146 0
25 -21 68 -146 0
-57 -27 -43 147 0
-57 -27 -43 -147 0
-29 44 -37 148 0
-29 44 -37 -148 0
34 47 -20 149 0
34 47 -20 -149 0
46 -45 -65 150 0
46 -45 -65 -150 0
-53 22 -68 151 0
-53 22 -68 -151 0
56 -14 -7 152 0
56 -14 -7 -152 0
1 27 28 153 0
1 27 28 -153 0
-33 -43 5 154 0
-33 -43 5 -154 0
28 27 -63 155 0
28 27 -63 -155 0
-65 -6 -7 156 0
-65 -6 -7 -156 0
-37 -30 -52 157 0
-37 -30 -52 -157 0
-27 53 2 158 0
-27 53 2 -158 0
13 48 54 159 0
13 48 54 -159 0
35 -53 61 160 0
35 -53 61 -160 0
6 -59 -19 161 0
6 -59 -19 -161 0
50 -3 -23 162 0
50 -3 -23 -162 0
75 -73 -53 163 0
75 -73 -53 -163 0
-13 65 -39 164 0
-13 65 -39 -164 0
25 -41 42 165 0
25 -41 42 -165 0
-24 68 -20 166 0
-24 68 -20 -166 0
-36 54 63 167 0
-36 54 63 -167 0
57 4 31 168 0
57 4 31 -168 0
-26 18 73 169 0
-26 18 73 -169 0
54 -33 44 170 0
54 -33 44 -170 0
-56 67 23 171 0
-56 67 23 -171 0
-60 -70 6 172 0
-60 -70 6 -172 0
6 -34 13 173 0
6 -34 13 -173 0
-44 19 -36 174 0
-44 19 -36 -174 0
45 62 -1 175 0
45 62 -1 -175 0
-44 -62 -35 176 0
-44 -62 -35 -176 0
19 47 -64 177 0
19 47 -64 -177 0
-33 -25 -75 178 0
-33 -25 -75 -178 0
64 -30 11 179 0
64 -30 11 -179 0
-67 -40 6 180 0
-67 -40 6 -180 0
-36 22 -74 181 0
-36 22 -74 -181 0
-65 -33 -32 182 0
-65 -33 -32 -182 0
19 -14 -1 183 0
19 -14 -1 -183 0
10 -48 17 184 0
10 -48 17 -184 0
-39 -63 52 185 0
-39 -63 52 -185 0
-56 17 -51 186 0
-56 17 -51 -186 0
-39 -2 22 187 0
-39 -2 22 -187 0
-47 75 17 188 0
-47 75 17 -188 0
-34 -27 -48 189 0
-34 -27 -48 -189 0
62 -11 31 190 0
62 -11 31 -190 0
-67 35 -28 191 0
-67 35 -28 -191 0
-32 -52 42 192 0
-32 -52 42 -192 0
-55 -19 -21 193 0
-55 -19 -21 -193 0
-71 -25 65 194 0
-71 -25 65 -194 0
-12 62 47 195 0
-12 62 47 -195 0
54 -16 -60 196 0
54 -16 -60 -196 0
45 -13 50 197 0
45 -13 50 -197 0
-32 -46 41 198 0
-32 -46 41 -198 0
16 37 -57 199 0
16 37 -57 -199 0
42 -16 -44 200 0
42 -16 -44 -200 0
40 -36 -7 201 0
40 -36 -7 -201 0
-22 11 -2 202 0
-22 11 -2 -202 0
-19 54 38 203 0
-19 54 38 -203 0
-17 -46 -40 204 0
-17 -46 -40 -204 0
56 17 -61 205 0
56 17 -61 -205 0
16 69 -5 206 0
16 69 -5 -206 0
12 40 56 207 0
12 40 56 -207 0
-6 55 -43 208 0
-6 55 -43 -208 0
-56 57 -12 209 0
-56 57 -12 -209 0
-35 49 42 210 0
-35 49 42 -210 0
73 -14 21 211 0
73 -14 21 -211 0
56 -40 -45 212 0
56 -40 -45 -212 0
71 22 -18 213 0
71 22 -18 -213 0
-16 -13 -75 214 0
-16 -13 -75 -214 0
29 18 22 215 0
29 18 22 -215 0
10 18 45 216 0
10 18 45 -216 0
62 14 67 217 0
62 14 67 -217 0
6 -26 55 218 0
6 -26 55 -218 0
13 -1 -23 219 0
13 -1 -23 -219 0
68 25 10 220 0
68 25 10 -220 0
46 48 -15 221 0
46 48 -15 -221 0
62 -19 -34 222 0
62 -19 -34 -222 0
-23 -74 -47 223 0
-23 -74 -47 -223 0
-58 -60 -5 224 0
-58 -60 -5 -224 0
63 -5 6 225 0
63 -5 6 -225 0
-47 11 9 226 0
-47 11 9 -226 0
-28 73 34 227 0
-28 73 34 -227 0
54 37 -6 228 0
54 37 -6 -228 0
7 -65 49 229 0
7 -65 49 -229 0
8 -47 -32 230 0
8 -47 -32 -230 0
-50 21 8 231 0
-50 21 8 -231 0
73 35 17 232 0
73 35 17 -232 0
-38 75 -67 233 0
-38 75 -67 -233 0
32 -31 -64 234 0
32 -31 -64 -234 0
-33 -51 -20 235 0
-33 -51 -20 -235 0
-61 39 14 236 0
-61 39 14 -236 0
13 -20 55 237 0
13 -20 55 -237 0
-59 -13 1 238 0
-59 -13 1 -238 0
50 12 56 239 0
50 12 56 -239 0
11 -49 -74 240 0
11 -49 -74 -240 0
24 -26 -38 241 0
24 -26 -38 -241 0
-30 -67 -38 242 0
-30 -67 -38 -242 0
42 54 -40 243 0
42 54 -40 -243 0
-67 -46 -29 244 0
-67 -46 -29 -244 0
-36 -67 69 245 0
-36 -67 69 -245 0
-22 -4 55 246 0
-22 -4 55 -246 0
-68 43 -75 247 0
-68 43 -75 -247 0
18 62 -3 248 0
18 62 -3 -248 0
-27 -66 37 249 0
-27 -66 37 -249 0
19 13 -22 250 0
19 13 -22 -250 0
30 -32 -4 251 0
30 -32 -4 -251 0
-47 -63 22 252 0
-47 -63 22 -252 0
9 56 17 253 0
9 56 17 -253 0
-3 42 27 254 0
-3 42 27 -254 0
69 -41 17 255 0
69 -41 17 -255 0
14 9 -57 256 0
14 9 -57 -256 0
72 64 39 257 0
72 64 39 -257 0
-48 -43 -58 258 0
-48 -43 -58 -258 0
-25 56 -41 259 0
-25 56 -41 -259 0
-56 13 29 260 0
-56 13 29 -260 0
23 -41 15 261 0
23 -41 15 -261 0
56 -54 -21 262 0
56 -54 -21 -262 0
22 45 5 263 0
22 45 5 -263 0
58 57 44 264 0
58 57 44 -264 0
15 -13 -60 265 0
15 -13 -60 -265 0
33 -5 -6 266 0
33 -5 -6 -266 0
17 41 58 267 0
17 41 58 -267 0
-57 -7 -59 268 0
-57 -7 -59 -268 0
64 -22 -41 269 0
64 -22 -41 -269 0
-63 70 54 270 0
-63 70 54 -270 0
-38 22 44 271 0
-38 22 44 -271 0
-16 49 64 272 0
-16 49 64 -272 0
34 -17 -10 273 0
34 -17 -10 -273 0
-8 -3 -34 274 0
-8 -3 -34 -274 0
-28 -54 -53 275 0
-28 -54 -53 -275 0
38 21 16 276 0
38 21 16 -276 0
12 35 72 277 0
12 35 72 -277 0
27 -45 24 278 0
27 -45 24 -278 0
-30 71 -8 279 0
-30 71 -8 -279 0
-63 -64 44 280 0
-63 -64 44 -280 0
-35 27 -48 281 0
-35 27 -48 -281 0
-74 -45 27 282 0
-74 -45 27 -282 0
4 72 -7 283 0
4 72 -7 -283 0
-32 -62 66 284 0
-32 -62 66 -284 0
-29 38 16 285 0
-29 38 16 -285 0
-24 37 -31 286 0
-24 37 -31 -286 0
63 11 33 287 0
63 11 33 -287 0
-51 10 74 288 0
-51 10 74 -288 0
-52 68 -18 289 0
-52 68 -18 -289 0
68 -60 30 290 0
68 -60 30 -290 0
-12 6 69 291 0
-12 6 69 -291 0
-31 64 17 292 0
-31 64 17 -292 0
-65 53 -32 293 0
-65 53 -32 -293 0
19 -11 61 294 0
19 -11 61 -294 0
-28 -45 -2 295 0
-28 -45 -2 -295 0
16 -65 10 296 0
16 -65 10 -296 0
-62 -55 -31 297 0
-62 -55 -31 -297 0
39 -34 10 298 0
39 -34 10 -298 0
45 -4 64 299 0
45 -4 64 -299 0
34 25 -7 300 0
34 25 -7 -300 0
-32 68 -56 301 0
-32 68 -56 -301 0
55 -11 26 302 0
55 -11 26 -302 0
-64 -23 40 303 0
-64 -23 40 -303 0
-1 19 36 304 0
-1 19 36 -304 0
70 -57 -41 305 0
70 -57 -41 -305 0
-67 -29 -36 306 0
-67 -29 -36 -306 0
-19 -49 -70 307 0
-19 -49 -70 -307 0
51 -48 -3 308 0
51 -48 -3 -308 0
48 46 70 309 0
48 46 70 -309 0
-24 29 -75 310 0
-24 29 -75 -310 0
-33 -22 26 311 0
-33 -22 26 -311 0
-52 -12 -69 312 0
-52 -12 -69 -312 0
26 -31 -25 313 0
26 -31 -25 -313 0
-4 18 -41 314 0
-4 18 -41 -314 0
17 -50 -29 315 0
17 -50 -29 -315 0
-14 -71 -5 316 0
-14 -71 -5 -316 0
-59 40 -10 317 0
-59 40 -10 -317 0
-29 -37 -20 318 0
-29 -37 -20 -318 0
48 -69 7 319 0
48 -69 7 -319 0
-13 9 -8 320 0
-13 9 -8 -320 0
25 39 42 321 0
25 39 42 -321 0
28 -62 70 322 0
28 -62 70 -322 0
-26 -67 43 323 0
-26 -67 43 -323 0
-35 18 26 324 0
-35 18 26 -324 0
74 44 -27 325 0
74 44 -27 -325 0
52 -35 15 326 0
52 -35 15 -326 0
-48 -16 -3 327 0
-48 -16 -3 -327 0
48 -3 33 328 0
48 -3 33 -328 0
-47 -8 -21 329 0
-47 -8 -21 -329 0
-15 -48 19 330 0
-15 -48 19 -330 0
17 -31 -63 331 0
17 -31 -63 -331 0
-48 -21 -67 332 0
-48 -21 -67 -332 0
-16 -36 47 333 0
-16 -36 47 -333 0
-51 22 28 334 0
-51 22 28 -334 0
-47 35 49 335 0
-47 35 49 -335 0
18 -17 58 336 0
18 -17 58 -336 0
-57 -21 -52 337 0
-57 -21 -52 -337 0
-17 -12 -75 338 0
-17 -12 -75 -338 0
9 36 72 339 0
9 36 72 -339 0
37 -3 -50 340 0
37 -3 -50 -340 0
37 11 -67 341 0
37 11 -67 -341 0
51 -72 -61 342 0
51 -72 -61 -342 0
-67 -62 -68 343 0
-67 -62 -68 -343 0
-42 58 -12 344 0
-42 58 -12 -344 0
-55 -46 30 345 0
-55 -46 30 -345 0
-27 -48 72 346 0
-27 -48 72 -346 0
22 61 -49 347 0
22 61 -49 -347 0
-16 -69 -32 348 0
-16 -69 -32 -348 0
-49 58 37 349 0
-49 58 37 -349 0
47 71 -45 350 0
47 71 -45 -350 0
62 -7 46 351 0
62 -7 46 -351 0
54 55 27 352 0
54 55 27 -352 0
67 25 -23 353 0
67 25 -23 -353 0
-22 -64 50 354 0
-22 -64 50 -354 0
-75 -26 71 355 0
-75 -26 71 -355 0
-19 48 36 356 0
-19 48 36 -356 0
69 59 10 357 0
69 59 10 -357 0
-50 3 -44 358 0
-50 3 -44 -358 0
-65 48 47 359 0
-65 48 47 -359 0
40 -31 -53 360 0
40 -31 -53 -360 0
65 18 12 361 0
65 18 12 -361 0
-54 75 1 362 0
-54 75 1 -362 0
-7 -70 -13 363 0
-7 -70 -13 -363 0
33 56 -12 364 0
33 56 -12 -364 0
32 60 -74 365 0
32 60 -74 -365 0
-47 10 17 366 0
-47 10 17 -366 0
-75 13 -22 367 0
-75 13 -22 -367 0
11 -7 37 368 0
11 -7 37 -368 0
-62 15 10 369 0
-62 15 10 -369 0
-41 -51 15 370 0
-41 -51 15 -370 0
-38 31 44 371 0
-38 31 44 -371 0
1 14 15 372 0
1 14 15 -372 0
65 -24 22 373 0
65 -24 22 -373 0
-55 33 18 374 0
-55 33 18 -374 0
19 72 -12 375 0
19 72 -12 -375 0
68 -75 -26 376 0
68 -75 -26 -376 0
-38 54 -53 377 0
-38 54 -53 -377 0
66 67 -14 378 0
66 67 -14 -378 0
16 -73 -18 379 0
16 -73 -18 -379 0
70 -6 45 380 0
70 -6 45 -380 0
2 -31 -5 381 0
2 -31 -5 -381 0
-67 29 -37 382 0
-67 29 -37 -382 0
-35 71 -30 383 0
-35 71 -30 -383 0
-33 -24 45 384 0
-33 -24 45 -384 0
-24 -51 37 385 0
-24 -51 37 -385 0
74 59 32 386 0
74 59 32 -386 0
62 -3 -51 387 0
62 -3 -51 -387 0
61 -7 -51 388 0
61 -7 -51 -388 0
62 -13 -7 389 0
62 -13 -7 -389 0
63 12 39 390 0
63 12 39 -390 0
-25 3 5 391 0
-25 3 5 -391 0
-4 68 -19 392 0
-4 68 -19 -392 0
35 2 -72 393 0
35 2 -72 -393 0
-68 3 -64 394 0
-68 3 -64 -394 0
61 -21 -63 395 0
61 -21 -63 -395 0
-45 70 -49 396 0
-45 70 -49 -396 0
55 69 -8 397 0
55 69 -8 -397 0
69 10 -70 398 0
69 10 -70 -398 0
-71 -29 36 399 0
-71 -29 36 -399 0
56 -9 -75 400 0
56 -9 -75 -400 0
401 402 403 404 0
401 402 403 -404 0
401 402 -403 404 0
401 402 -403 -404 0
401 -402 403 404 0
401 -402 403 -404 0
401 -402 -403 404 0
401 -402 -403 -404 0
-401 402 403 404 0
-401 402 403 -404 0
-401 402 -403 404 0
-401 402 -403 -404 0
-401 -402 403 404 0
-401 -402 403 -404 0
-401 -402 -403 404 0
-401 -402 -403 -404 0
405 406 407 408 0
405 406 407 -408 0
405 406 -407 408 0
405 406 -407 -408 0
405 -406 407 408 0
405 -406 407 -408 0
405 -406 -407 408 0
405 -406 -407 -408 0
-405 406 407 408 0
-405 406 407 -408 0
-405 406 -407 408 0
-405 406 -407 -408 0
-405 -406 407 408 0
-405 -406 407 -408 0
-405 -406 -407 408 0
-405 -406 -407 -408 0
409 410 411 412 0
409 410 411 -412 0
409 410 -411 412 0
409 410 -411 -412 0
409 -410 411 412 0
409 -410 411 -412 0
409 -410 -411 412 0
409 -410 -411 -412 0
-409 410 411 412 0
-409 410 411 -412 0
-409 410 -411 412 0
-409 410 -411 -412 0
-409 -410 411 412 0
-409 -410 411 -412 0
-409 -410 -411 412 0
-409 -410 -411 -412 0
